63
150
120	2
119	1
116	1
115	1
111	3
109	3
108	1
107	1
106	1
105	1
103	1
102	1
101	3
98	1
96	1
94	1
93	2
91	1
90	2
89	3
87	1
86	2
83	1
81	1
80	2
79	3
77	1
76	1
75	3
72	1
71	5
70	1
66	2
62	2
60	1
59	1
58	3
57	1
55	1
54	2
53	1
51	3
50	2
47	2
46	2
45	2
43	1
41	1
40	1
36	1
35	2
34	1
33	1
32	1
30	2
29	2
27	2
23	1
20	1
19	1
18	1
16	2
15	1
